70
1 0 67
2 0 93
2 1 69
3 0 33
3 1 15
3 2 64
4 0 38
4 1 94
4 2 90
4 3 93
5 0 54
5 1 41
5 2 7
5 3 78
5 4 80
6 0 35
6 1 28
6 2 92
6 3 23
6 4 59
6 5 58
7 0 43
7 1 78
7 2 16
7 3 51
7 4 5
7 5 3
7 6 78
8 0 85
8 1 7
8 2 58
8 3 91
8 4 16
8 5 20
8 6 40
8 7 73
9 0 8
9 1 59
9 2 28
9 3 76
9 4 100
9 5 15
9 6 9
9 7 84
9 8 67
10 0 81
10 1 42
10 2 67
10 3 64
10 4 18
10 5 3
10 6 29
10 7 89
10 8 92
10 9 84
11 0 1
11 1 84
11 2 83
11 3 72
11 4 80
11 5 60
11 6 20
11 7 14
11 8 12
11 9 25
11 10 25
12 0 43
12 1 62
12 2 46
12 3 53
12 4 31
12 5 34
12 6 75
12 7 59
12 8 84
12 9 22
12 10 16
12 11 34
13 0 1
13 1 3
13 2 20
13 3 99
13 4 57
13 5 19
13 6 23
13 7 30
13 8 93
13 9 96
13 10 85
13 11 68
13 12 7
14 0 90
14 1 75
14 2 37
14 3 89
14 4 77
14 5 12
14 6 61
14 7 47
14 8 23
14 9 71
14 10 70
14 11 2
14 12 80
14 13 4
15 0 21
15 1 74
15 2 18
15 3 31
15 4 83
15 5 58
15 6 88
15 7 7
15 8 66
15 9 83
15 10 56
15 11 78
15 12 76
15 13 97
15 14 67
16 0 60
16 1 39
16 2 15
16 3 41
16 4 27
16 5 32
16 6 36
16 7 82
16 8 79
16 9 97
16 10 97
16 11 70
16 12 23
16 13 37
16 14 44
16 15 71
17 0 9
17 1 21
17 2 17
17 3 65
17 4 77
17 5 38
17 6 88
17 7 4
17 8 17
17 9 84
17 10 97
17 11 27
17 12 62
17 13 77
17 14 83
17 15 100
17 16 45
18 0 19
18 1 95
18 2 68
18 3 3
18 4 64
18 5 22
18 6 27
18 7 4
18 8 53
18 9 6
18 10 54
18 11 27
18 12 30
18 13 1
18 14 56
18 15 37
18 16 47
18 17 96
19 0 24
19 1 8
19 2 18
19 3 25
19 4 6
19 5 12
19 6 92
19 7 28
19 8 30
19 9 66
19 10 46
19 11 24
19 12 42
19 13 93
19 14 16
19 15 29
19 16 47
19 17 69
19 18 19
20 0 23
20 1 58
20 2 32
20 3 47
20 4 40
20 5 100
20 6 88
20 7 12
20 8 45
20 9 14
20 10 46
20 11 88
20 12 16
20 13 68
20 14 52
20 15 88
20 16 61
20 17 66
20 18 18
20 19 44
21 0 6
21 1 5
21 2 55
21 3 5
21 4 66
21 5 40
21 6 68
21 7 62
21 8 73
21 9 32
21 10 62
21 11 54
21 12 14
21 13 7
21 14 65
21 15 31
21 16 15
21 17 49
21 18 78
21 19 72
21 20 71
22 0 97
22 1 2
22 2 80
22 3 8
22 4 21
22 5 4
22 6 2
22 7 25
22 8 11
22 9 9
22 10 50
22 11 52
22 12 81
22 13 56
22 14 25
22 15 23
22 16 84
22 17 32
22 18 58
22 19 52
22 20 3
22 21 81
23 0 31
23 1 58
23 2 34
23 3 51
23 4 33
23 5 83
23 6 2
23 7 27
23 8 71
23 9 84
23 10 66
23 11 64
23 12 47
23 13 9
23 14 1
23 15 12
23 16 44
23 17 86
23 18 67
23 19 6
23 20 18
23 21 73
23 22 11
24 0 51
24 1 64
24 2 65
24 3 44
24 4 40
24 5 10
24 6 40
24 7 98
24 8 75
24 9 63
24 10 97
24 11 64
24 12 78
24 13 98
24 14 25
24 15 55
24 16 15
24 17 78
24 18 93
24 19 39
24 20 77
24 21 37
24 22 59
24 23 55
25 0 76
25 1 67
25 2 33
25 3 97
25 4 61
25 5 90
25 6 47
25 7 20
25 8 67
25 9 11
25 10 11
25 11 15
25 12 26
25 13 70
25 14 64
25 15 61
25 16 39
25 17 54
25 18 44
25 19 33
25 20 63
25 21 30
25 22 40
25 23 41
25 24 65
26 0 12
26 1 98
26 2 22
26 3 63
26 4 68
26 5 89
26 6 5
26 7 30
26 8 33
26 9 74
26 10 42
26 11 52
26 12 90
26 13 17
26 14 37
26 15 66
26 16 27
26 17 16
26 18 56
26 19 97
26 20 81
26 21 82
26 22 78
26 23 96
26 24 35
26 25 72
27 0 24
27 1 40
27 2 29
27 3 38
27 4 74
27 5 27
27 6 82
27 7 82
27 8 58
27 9 11
27 10 65
27 11 11
27 12 89
27 13 38
27 14 56
27 15 22
27 16 63
27 17 71
27 18 57
27 19 80
27 20 45
27 21 37
27 22 80
27 23 64
27 24 27
27 25 22
27 26 11
28 0 84
28 1 21
28 2 99
28 3 13
28 4 5
28 5 8
28 6 56
28 7 34
28 8 26
28 9 86
28 10 73
28 11 29
28 12 3
28 13 64
28 14 69
28 15 3
28 16 11
28 17 97
28 18 85
28 19 41
28 20 84
28 21 78
28 22 15
28 23 90
28 24 80
28 25 11
28 26 84
28 27 93
29 0 59
29 1 36
29 2 24
29 3 100
29 4 76
29 5 84
29 6 9
29 7 2
29 8 10
29 9 89
29 10 56
29 11 66
29 12 6
29 13 71
29 14 90
29 15 67
29 16 84
29 17 71
29 18 31
29 19 46
29 20 40
29 21 13
29 22 61
29 23 26
29 24 58
29 25 9
29 26 76
29 27 88
29 28 96
30 0 38
30 1 21
30 2 81
30 3 16
30 4 74
30 5 67
30 6 97
30 7 72
30 8 29
30 9 97
30 10 71
30 11 86
30 12 39
30 13 80
30 14 61
30 15 59
30 16 21
30 17 65
30 18 21
30 19 2
30 20 68
30 21 31
30 22 86
30 23 99
30 24 61
30 25 61
30 26 19
30 27 18
30 28 16
30 29 36
31 0 90
31 1 34
31 2 96
31 3 57
31 4 89
31 5 47
31 6 61
31 7 53
31 8 1
31 9 87
31 10 23
31 11 27
31 12 83
31 13 55
31 14 42
31 15 46
31 16 21
31 17 37
31 18 70
31 19 78
31 20 69
31 21 80
31 22 38
31 23 33
31 24 90
31 25 38
31 26 38
31 27 69
31 28 46
31 29 7
31 30 41
32 0 51
32 1 16
32 2 18
32 3 67
32 4 91
32 5 38
32 6 58
32 7 79
32 8 5
32 9 1
32 10 24
32 11 81
32 12 51
32 13 31
32 14 53
32 15 34
32 16 48
32 17 45
32 18 57
32 19 36
32 20 95
32 21 84
32 22 79
32 23 1
32 24 22
32 25 33
32 26 39
32 27 58
32 28 49
32 29 82
32 30 26
32 31 49
33 0 46
33 1 7
33 2 78
33 3 88
33 4 3
33 5 63
33 6 36
33 7 23
33 8 66
33 9 21
33 10 70
33 11 2
33 12 95
33 13 85
33 14 20
33 15 44
33 16 39
33 17 75
33 18 88
33 19 56
33 20 54
33 21 72
33 22 84
33 23 57
33 24 91
33 25 43
33 26 11
33 27 95
33 28 41
33 29 100
33 30 26
33 31 67
33 32 5
34 0 67
34 1 44
34 2 84
34 3 39
34 4 53
34 5 40
34 6 30
34 7 82
34 8 54
34 9 80
34 10 17
34 11 56
34 12 29
34 13 91
34 14 33
34 15 31
34 16 37
34 17 43
34 18 33
34 19 61
34 20 16
34 21 2
34 22 22
34 23 39
34 24 41
34 25 80
34 26 19
34 27 43
34 28 6
34 29 1
34 30 27
34 31 61
34 32 2
34 33 36
35 0 19
35 1 10
35 2 93
35 3 94
35 4 31
35 5 95
35 6 7
35 7 72
35 8 23
35 9 86
35 10 4
35 11 89
35 12 35
35 13 76
35 14 79
35 15 69
35 16 72
35 17 75
35 18 12
35 19 43
35 20 70
35 21 52
35 22 79
35 23 79
35 24 40
35 25 12
35 26 82
35 27 72
35 28 1
35 29 87
35 30 62
35 31 51
35 32 26
35 33 73
35 34 2
36 0 72
36 1 81
36 2 39
36 3 41
36 4 15
36 5 26
36 6 89
36 7 45
36 8 10
36 9 1
36 10 64
36 11 12
36 12 40
36 13 24
36 14 4
36 15 15
36 16 22
36 17 77
36 18 3
36 19 87
36 20 38
36 21 48
36 22 44
36 23 29
36 24 85
36 25 50
36 26 85
36 27 81
36 28 60
36 29 56
36 30 31
36 31 79
36 32 96
36 33 9
36 34 21
36 35 11
37 0 25
37 1 85
37 2 5
37 3 24
37 4 18
37 5 33
37 6 10
37 7 53
37 8 43
37 9 23
37 10 91
37 11 74
37 12 38
37 13 58
37 14 35
37 15 6
37 16 77
37 17 52
37 18 72
37 19 3
37 20 96
37 21 57
37 22 80
37 23 17
37 24 93
37 25 15
37 26 18
37 27 37
37 28 21
37 29 53
37 30 19
37 31 6
37 32 48
37 33 46
37 34 7
37 35 91
37 36 35
38 0 32
38 1 44
38 2 61
38 3 74
38 4 29
38 5 7
38 6 79
38 7 74
38 8 9
38 9 59
38 10 34
38 11 94
38 12 21
38 13 55
38 14 56
38 15 64
38 16 74
38 17 6
38 18 94
38 19 31
38 20 2
38 21 90
38 22 48
38 23 26
38 24 100
38 25 71
38 26 92
38 27 55
38 28 87
38 29 87
38 30 16
38 31 32
38 32 34
38 33 4
38 34 85
38 35 24
38 36 70
38 37 43
39 0 96
39 1 81
39 2 45
39 3 36
39 4 63
39 5 56
39 6 29
39 7 67
39 8 82
39 9 43
39 10 56
39 11 3
39 12 41
39 13 99
39 14 56
39 15 18
39 16 84
39 17 10
39 18 31
39 19 63
39 20 49
39 21 34
39 22 59
39 23 48
39 24 23
39 25 17
39 26 52
39 27 26
39 28 96
39 29 73
39 30 80
39 31 97
39 32 9
39 33 75
39 34 47
39 35 75
39 36 23
39 37 91
39 38 88
40 0 88
40 1 51
40 2 71
40 3 8
40 4 1
40 5 34
40 6 53
40 7 92
40 8 76
40 9 54
40 10 76
40 11 58
40 12 23
40 13 16
40 14 75
40 15 24
40 16 96
40 17 39
40 18 29
40 19 14
40 20 34
40 21 33
40 22 78
40 23 39
40 24 67
40 25 63
40 26 21
40 27 94
40 28 21
40 29 21
40 30 79
40 31 94
40 32 97
40 33 55
40 34 58
40 35 20
40 36 14
40 37 37
40 38 76
40 39 43
41 0 34
41 1 47
41 2 25
41 3 68
41 4 10
41 5 27
41 6 69
41 7 97
41 8 29
41 9 30
41 10 25
41 11 11
41 12 31
41 13 45
41 14 66
41 15 17
41 16 42
41 17 3
41 18 28
41 19 13
41 20 45
41 21 79
41 22 39
41 23 68
41 24 58
41 25 44
41 26 82
41 27 14
41 28 31
41 29 40
41 30 62
41 31 99
41 32 46
41 33 73
41 34 45
41 35 58
41 36 5
41 37 56
41 38 89
41 39 87
41 40 27
42 0 42
42 1 75
42 2 28
42 3 87
42 4 26
42 5 22
42 6 12
42 7 91
42 8 14
42 9 37
42 10 12
42 11 34
42 12 81
42 13 24
42 14 93
42 15 17
42 16 70
42 17 77
42 18 77
42 19 4
42 20 3
42 21 10
42 22 50
42 23 45
42 24 3
42 25 6
42 26 83
42 27 100
42 28 53
42 29 88
42 30 37
42 31 46
42 32 42
42 33 49
42 34 91
42 35 37
42 36 59
42 37 85
42 38 91
42 39 54
42 40 62
42 41 16
43 0 22
43 1 85
43 2 7
43 3 10
43 4 56
43 5 86
43 6 26
43 7 23
43 8 8
43 9 44
43 10 94
43 11 16
43 12 28
43 13 27
43 14 9
43 15 43
43 16 89
43 17 92
43 18 91
43 19 88
43 20 66
43 21 6
43 22 59
43 23 10
43 24 6
43 25 62
43 26 59
43 27 29
43 28 32
43 29 34
43 30 36
43 31 44
43 32 43
43 33 91
43 34 78
43 35 86
43 36 91
43 37 39
43 38 87
43 39 36
43 40 56
43 41 4
43 42 31
44 0 62
44 1 41
44 2 47
44 3 6
44 4 54
44 5 60
44 6 71
44 7 98
44 8 67
44 9 7
44 10 79
44 11 25
44 12 2
44 13 1
44 14 86
44 15 8
44 16 64
44 17 63
44 18 87
44 19 86
44 20 7
44 21 77
44 22 35
44 23 95
44 24 44
44 25 17
44 26 98
44 27 51
44 28 62
44 29 61
44 30 76
44 31 23
44 32 5
44 33 20
44 34 10
44 35 91
44 36 85
44 37 56
44 38 9
44 39 7
44 40 55
44 41 49
44 42 87
44 43 14
45 0 42
45 1 62
45 2 67
45 3 99
45 4 19
45 5 3
45 6 10
45 7 67
45 8 87
45 9 76
45 10 81
45 11 79
45 12 72
45 13 79
45 14 28
45 15 79
45 16 65
45 17 92
45 18 79
45 19 9
45 20 70
45 21 60
45 22 55
45 23 86
45 24 27
45 25 51
45 26 58
45 27 89
45 28 21
45 29 79
45 30 85
45 31 85
45 32 14
45 33 79
45 34 82
45 35 77
45 36 39
45 37 4
45 38 37
45 39 76
45 40 53
45 41 75
45 42 60
45 43 12
45 44 42
46 0 89
46 1 24
46 2 37
46 3 16
46 4 94
46 5 48
46 6 98
46 7 41
46 8 53
46 9 56
46 10 74
46 11 98
46 12 80
46 13 30
46 14 98
46 15 63
46 16 20
46 17 56
46 18 19
46 19 52
46 20 84
46 21 24
46 22 80
46 23 68
46 24 88
46 25 24
46 26 97
46 27 48
46 28 39
46 29 68
46 30 80
46 31 4
46 32 68
46 33 5
46 34 34
46 35 89
46 36 23
46 37 30
46 38 15
46 39 50
46 40 38
46 41 1
46 42 46
46 43 41
46 44 73
46 45 97
47 0 9
47 1 3
47 2 73
47 3 1
47 4 64
47 5 39
47 6 92
47 7 88
47 8 76
47 9 48
47 10 93
47 11 44
47 12 35
47 13 87
47 14 100
47 15 49
47 16 9
47 17 72
47 18 84
47 19 1
47 20 64
47 21 45
47 22 86
47 23 69
47 24 34
47 25 67
47 26 36
47 27 93
47 28 37
47 29 13
47 30 99
47 31 76
47 32 62
47 33 72
47 34 59
47 35 28
47 36 73
47 37 90
47 38 41
47 39 65
47 40 7
47 41 2
47 42 9
47 43 75
47 44 64
47 45 40
47 46 1
48 0 91
48 1 11
48 2 19
48 3 93
48 4 46
48 5 50
48 6 29
48 7 88
48 8 97
48 9 25
48 10 94
48 11 92
48 12 34
48 13 68
48 14 73
48 15 8
48 16 23
48 17 99
48 18 7
48 19 58
48 20 46
48 21 44
48 22 50
48 23 35
48 24 31
48 25 30
48 26 30
48 27 21
48 28 91
48 29 64
48 30 27
48 31 33
48 32 13
48 33 20
48 34 65
48 35 82
48 36 70
48 37 77
48 38 56
48 39 67
48 40 31
48 41 91
48 42 52
48 43 16
48 44 18
48 45 86
48 46 74
48 47 67
49 0 20
49 1 6
49 2 34
49 3 47
49 4 50
49 5 63
49 6 78
49 7 81
49 8 35
49 9 54
49 10 99
49 11 49
49 12 53
49 13 60
49 14 9
49 15 75
49 16 61
49 17 34
49 18 69
49 19 9
49 20 84
49 21 41
49 22 4
49 23 35
49 24 55
49 25 9
49 26 73
49 27 23
49 28 22
49 29 6
49 30 55
49 31 6
49 32 70
49 33 56
49 34 66
49 35 48
49 36 19
49 37 43
49 38 42
49 39 32
49 40 97
49 41 85
49 42 29
49 43 88
49 44 1
49 45 65
49 46 75
49 47 40
49 48 90
50 0 58
50 1 18
50 2 41
50 3 77
50 4 82
50 5 2
50 6 21
50 7 16
50 8 71
50 9 91
50 10 73
50 11 94
50 12 51
50 13 29
50 14 53
50 15 82
50 16 44
50 17 89
50 18 60
50 19 98
50 20 65
50 21 8
50 22 28
50 23 89
50 24 63
50 25 90
50 26 50
50 27 42
50 28 23
50 29 37
50 30 11
50 31 63
50 32 41
50 33 19
50 34 97
50 35 4
50 36 31
50 37 26
50 38 10
50 39 14
50 40 28
50 41 33
50 42 15
50 43 49
50 44 92
50 45 78
50 46 82
50 47 69
50 48 34
50 49 53
51 0 7
51 1 97
51 2 18
51 3 30
51 4 35
51 5 35
51 6 6
51 7 88
51 8 4
51 9 42
51 10 43
51 11 15
51 12 83
51 13 38
51 14 20
51 15 91
51 16 87
51 17 75
51 18 48
51 19 83
51 20 85
51 21 91
51 22 24
51 23 7
51 24 23
51 25 53
51 26 88
51 27 38
51 28 44
51 29 31
51 30 94
51 31 66
51 32 72
51 33 77
51 34 42
51 35 43
51 36 87
51 37 93
51 38 47
51 39 58
51 40 15
51 41 18
51 42 45
51 43 35
51 44 2
51 45 58
51 46 57
51 47 51
51 48 56
51 49 49
51 50 60
52 0 5
52 1 66
52 2 23
52 3 42
52 4 97
52 5 40
52 6 18
52 7 31
52 8 93
52 9 17
52 10 51
52 11 43
52 12 81
52 13 44
52 14 40
52 15 65
52 16 51
52 17 26
52 18 55
52 19 77
52 20 54
52 21 88
52 22 26
52 23 99
52 24 14
52 25 11
52 26 43
52 27 83
52 28 10
52 29 21
52 30 20
52 31 8
52 32 41
52 33 52
52 34 9
52 35 41
52 36 50
52 37 16
52 38 92
52 39 81
52 40 66
52 41 41
52 42 85
52 43 85
52 44 86
52 45 53
52 46 23
52 47 46
52 48 18
52 49 41
52 50 27
52 51 86
53 0 38
53 1 6
53 2 51
53 3 67
53 4 52
53 5 84
53 6 80
53 7 38
53 8 59
53 9 12
53 10 15
53 11 79
53 12 45
53 13 59
53 14 65
53 15 100
53 16 67
53 17 53
53 18 49
53 19 8
53 20 8
53 21 59
53 22 48
53 23 52
53 24 1
53 25 16
53 26 87
53 27 15
53 28 61
53 29 14
53 30 28
53 31 2
53 32 73
53 33 71
53 34 3
53 35 39
53 36 23
53 37 69
53 38 13
53 39 9
53 40 64
53 41 14
53 42 75
53 43 57
53 44 67
53 45 65
53 46 11
53 47 58
53 48 96
53 49 38
53 50 80
53 51 35
53 52 88
54 0 62
54 1 11
54 2 48
54 3 58
54 4 73
54 5 4
54 6 15
54 7 37
54 8 52
54 9 78
54 10 32
54 11 15
54 12 46
54 13 2
54 14 81
54 15 66
54 16 30
54 17 35
54 18 73
54 19 53
54 20 9
54 21 54
54 22 53
54 23 47
54 24 48
54 25 63
54 26 51
54 27 20
54 28 93
54 29 81
54 30 77
54 31 89
54 32 23
54 33 88
54 34 84
54 35 4
54 36 29
54 37 56
54 38 41
54 39 37
54 40 37
54 41 88
54 42 3
54 43 98
54 44 92
54 45 71
54 46 67
54 47 76
54 48 88
54 49 78
54 50 37
54 51 8
54 52 12
54 53 6
55 0 53
55 1 98
55 2 25
55 3 23
55 4 56
55 5 50
55 6 8
55 7 49
55 8 83
55 9 89
55 10 42
55 11 26
55 12 24
55 13 81
55 14 97
55 15 16
55 16 79
55 17 76
55 18 60
55 19 50
55 20 4
55 21 30
55 22 15
55 23 25
55 24 29
55 25 93
55 26 58
55 27 4
55 28 80
55 29 57
55 30 16
55 31 75
55 32 58
55 33 7
55 34 95
55 35 71
55 36 33
55 37 12
55 38 86
55 39 69
55 40 74
55 41 61
55 42 86
55 43 99
55 44 20
55 45 22
55 46 35
55 47 47
55 48 50
55 49 79
55 50 63
55 51 29
55 52 23
55 53 80
55 54 100
56 0 66
56 1 88
56 2 92
56 3 93
56 4 96
56 5 92
56 6 62
56 7 31
56 8 87
56 9 19
56 10 15
56 11 82
56 12 56
56 13 61
56 14 42
56 15 82
56 16 3
56 17 85
56 18 58
56 19 30
56 20 95
56 21 59
56 22 42
56 23 88
56 24 86
56 25 50
56 26 80
56 27 83
56 28 53
56 29 91
56 30 72
56 31 57
56 32 68
56 33 3
56 34 77
56 35 24
56 36 45
56 37 13
56 38 10
56 39 24
56 40 39
56 41 86
56 42 17
56 43 68
56 44 85
56 45 81
56 46 74
56 47 42
56 48 86
56 49 6
56 50 7
56 51 96
56 52 8
56 53 98
56 54 25
56 55 32
57 0 39
57 1 90
57 2 6
57 3 87
57 4 6
57 5 21
57 6 73
57 7 55
57 8 71
57 9 7
57 10 69
57 11 100
57 12 45
57 13 78
57 14 8
57 15 60
57 16 93
57 17 39
57 18 46
57 19 43
57 20 12
57 21 40
57 22 31
57 23 49
57 24 11
57 25 23
57 26 96
57 27 94
57 28 30
57 29 8
57 30 20
57 31 8
57 32 70
57 33 34
57 34 68
57 35 19
57 36 13
57 37 51
57 38 85
57 39 72
57 40 70
57 41 48
57 42 99
57 43 28
57 44 84
57 45 53
57 46 66
57 47 46
57 48 64
57 49 39
57 50 67
57 51 37
57 52 33
57 53 24
57 54 15
57 55 56
57 56 23
58 0 58
58 1 68
58 2 64
58 3 41
58 4 13
58 5 24
58 6 68
58 7 92
58 8 45
58 9 57
58 10 34
58 11 37
58 12 80
58 13 34
58 14 25
58 15 8
58 16 31
58 17 94
58 18 16
58 19 31
58 20 81
58 21 95
58 22 63
58 23 10
58 24 60
58 25 64
58 26 67
58 27 75
58 28 7
58 29 1
58 30 34
58 31 9
58 32 7
58 33 11
58 34 16
58 35 96
58 36 31
58 37 81
58 38 13
58 39 57
58 40 22
58 41 28
58 42 43
58 43 64
58 44 12
58 45 64
58 46 22
58 47 63
58 48 57
58 49 72
58 50 9
58 51 27
58 52 17
58 53 92
58 54 17
58 55 23
58 56 35
58 57 38
59 0 74
59 1 83
59 2 86
59 3 23
59 4 7
59 5 89
59 6 88
59 7 45
59 8 69
59 9 23
59 10 15
59 11 67
59 12 36
59 13 46
59 14 39
59 15 94
59 16 55
59 17 99
59 18 98
59 19 22
59 20 90
59 21 43
59 22 66
59 23 32
59 24 37
59 25 80
59 26 72
59 27 35
59 28 72
59 29 23
59 30 93
59 31 89
59 32 67
59 33 17
59 34 21
59 35 65
59 36 96
59 37 4
59 38 72
59 39 19
59 40 94
59 41 4
59 42 93
59 43 83
59 44 60
59 45 62
59 46 92
59 47 17
59 48 11
59 49 53
59 50 71
59 51 55
59 52 28
59 53 73
59 54 75
59 55 44
59 56 48
59 57 50
59 58 51
60 0 70
60 1 95
60 2 45
60 3 3
60 4 11
60 5 59
60 6 37
60 7 82
60 8 58
60 9 59
60 10 10
60 11 32
60 12 95
60 13 54
60 14 77
60 15 12
60 16 45
60 17 79
60 18 20
60 19 32
60 20 98
60 21 32
60 22 34
60 23 94
60 24 97
60 25 39
60 26 87
60 27 19
60 28 36
60 29 54
60 30 43
60 31 98
60 32 5
60 33 94
60 34 28
60 35 11
60 36 85
60 37 10
60 38 97
60 39 82
60 40 62
60 41 31
60 42 67
60 43 78
60 44 45
60 45 44
60 46 15
60 47 71
60 48 73
60 49 1
60 50 35
60 51 12
60 52 67
60 53 56
60 54 39
60 55 94
60 56 58
60 57 73
60 58 17
60 59 94
61 0 92
61 1 67
61 2 3
61 3 33
61 4 98
61 5 60
61 6 11
61 7 85
61 8 62
61 9 71
61 10 34
61 11 24
61 12 63
61 13 63
61 14 31
61 15 100
61 16 35
61 17 30
61 18 26
61 19 69
61 20 85
61 21 85
61 22 15
61 23 23
61 24 72
61 25 76
61 26 43
61 27 7
61 28 21
61 29 70
61 30 89
61 31 97
61 32 38
61 33 45
61 34 98
61 35 93
61 36 48
61 37 8
61 38 21
61 39 51
61 40 63
61 41 17
61 42 60
61 43 37
61 44 58
61 45 67
61 46 40
61 47 10
61 48 22
61 49 96
61 50 38
61 51 42
61 52 86
61 53 86
61 54 53
61 55 38
61 56 76
61 57 89
61 58 91
61 59 15
61 60 24
62 0 97
62 1 6
62 2 62
62 3 32
62 4 29
62 5 13
62 6 74
62 7 87
62 8 16
62 9 61
62 10 37
62 11 62
62 12 95
62 13 50
62 14 18
62 15 53
62 16 52
62 17 12
62 18 79
62 19 39
62 20 74
62 21 92
62 22 7
62 23 56
62 24 90
62 25 12
62 26 49
62 27 39
62 28 25
62 29 88
62 30 93
62 31 59
62 32 91
62 33 44
62 34 8
62 35 57
62 36 83
62 37 42
62 38 71
62 39 69
62 40 66
62 41 6
62 42 11
62 43 80
62 44 60
62 45 37
62 46 76
62 47 47
62 48 69
62 49 30
62 50 80
62 51 90
62 52 97
62 53 32
62 54 96
62 55 47
62 56 62
62 57 22
62 58 12
62 59 17
62 60 100
62 61 90
63 0 40
63 1 56
63 2 100
63 3 42
63 4 74
63 5 9
63 6 38
63 7 77
63 8 16
63 9 63
63 10 86
63 11 88
63 12 26
63 13 77
63 14 19
63 15 97
63 16 65
63 17 24
63 18 46
63 19 34
63 20 29
63 21 40
63 22 28
63 23 96
63 24 4
63 25 67
63 26 79
63 27 69
63 28 84
63 29 44
63 30 47
63 31 94
63 32 29
63 33 78
63 34 22
63 35 90
63 36 62
63 37 92
63 38 29
63 39 100
63 40 25
63 41 40
63 42 90
63 43 92
63 44 55
63 45 38
63 46 69
63 47 46
63 48 33
63 49 48
63 50 35
63 51 13
63 52 24
63 53 1
63 54 10
63 55 5
63 56 25
63 57 73
63 58 75
63 59 83
63 60 66
63 61 30
63 62 60
64 0 29
64 1 42
64 2 9
64 3 45
64 4 22
64 5 76
64 6 3
64 7 39
64 8 69
64 9 33
64 10 67
64 11 18
64 12 41
64 13 36
64 14 70
64 15 36
64 16 24
64 17 57
64 18 47
64 19 48
64 20 93
64 21 87
64 22 29
64 23 1
64 24 56
64 25 95
64 26 63
64 27 81
64 28 29
64 29 42
64 30 50
64 31 36
64 32 46
64 33 12
64 34 47
64 35 90
64 36 6
64 37 66
64 38 27
64 39 37
64 40 18
64 41 35
64 42 95
64 43 77
64 44 93
64 45 8
64 46 86
64 47 22
64 48 91
64 49 87
64 50 9
64 51 100
64 52 32
64 53 5
64 54 11
64 55 15
64 56 12
64 57 31
64 58 67
64 59 66
64 60 2
64 61 19
64 62 30
64 63 14
65 0 11
65 1 64
65 2 91
65 3 51
65 4 34
65 5 64
65 6 27
65 7 19
65 8 36
65 9 29
65 10 54
65 11 82
65 12 24
65 13 59
65 14 1
65 15 40
65 16 15
65 17 84
65 18 70
65 19 47
65 20 4
65 21 67
65 22 56
65 23 66
65 24 91
65 25 72
65 26 33
65 27 76
65 28 12
65 29 72
65 30 44
65 31 18
65 32 92
65 33 55
65 34 36
65 35 34
65 36 14
65 37 30
65 38 31
65 39 51
65 40 68
65 41 57
65 42 36
65 43 95
65 44 27
65 45 58
65 46 18
65 47 57
65 48 63
65 49 62
65 50 5
65 51 32
65 52 98
65 53 10
65 54 86
65 55 7
65 56 59
65 57 21
65 58 23
65 59 75
65 60 79
65 61 79
65 62 100
65 63 91
65 64 52
66 0 17
66 1 60
66 2 99
66 3 59
66 4 86
66 5 27
66 6 5
66 7 98
66 8 43
66 9 93
66 10 69
66 11 96
66 12 3
66 13 23
66 14 32
66 15 91
66 16 28
66 17 18
66 18 17
66 19 100
66 20 56
66 21 28
66 22 67
66 23 19
66 24 83
66 25 2
66 26 89
66 27 20
66 28 65
66 29 32
66 30 45
66 31 40
66 32 94
66 33 18
66 34 1
66 35 79
66 36 64
66 37 53
66 38 6
66 39 45
66 40 34
66 41 25
66 42 85
66 43 20
66 44 57
66 45 73
66 46 60
66 47 38
66 48 24
66 49 36
66 50 34
66 51 90
66 52 53
66 53 1
66 54 97
66 55 1
66 56 9
66 57 27
66 58 40
66 59 41
66 60 41
66 61 94
66 62 94
66 63 79
66 64 85
66 65 29
67 0 30
67 1 71
67 2 40
67 3 83
67 4 66
67 5 50
67 6 43
67 7 69
67 8 94
67 9 71
67 10 89
67 11 86
67 12 12
67 13 11
67 14 66
67 15 95
67 16 17
67 17 30
67 18 17
67 19 12
67 20 9
67 21 55
67 22 33
67 23 38
67 24 93
67 25 32
67 26 46
67 27 42
67 28 100
67 29 60
67 30 82
67 31 68
67 32 50
67 33 9
67 34 78
67 35 26
67 36 30
67 37 68
67 38 87
67 39 93
67 40 59
67 41 100
67 42 18
67 43 36
67 44 74
67 45 81
67 46 86
67 47 32
67 48 46
67 49 55
67 50 72
67 51 40
67 52 13
67 53 40
67 54 15
67 55 50
67 56 93
67 57 49
67 58 87
67 59 36
67 60 8
67 61 30
67 62 16
67 63 60
67 64 44
67 65 36
67 66 73
68 0 9
68 1 12
68 2 60
68 3 30
68 4 81
68 5 94
68 6 19
68 7 50
68 8 38
68 9 88
68 10 69
68 11 69
68 12 79
68 13 90
68 14 63
68 15 89
68 16 32
68 17 65
68 18 15
68 19 83
68 20 44
68 21 8
68 22 11
68 23 80
68 24 22
68 25 92
68 26 84
68 27 92
68 28 64
68 29 49
68 30 53
68 31 84
68 32 70
68 33 40
68 34 80
68 35 21
68 36 32
68 37 4
68 38 1
68 39 20
68 40 40
68 41 94
68 42 40
68 43 1
68 44 48
68 45 41
68 46 7
68 47 31
68 48 92
68 49 99
68 50 29
68 51 69
68 52 56
68 53 67
68 54 89
68 55 90
68 56 25
68 57 93
68 58 55
68 59 31
68 60 69
68 61 1
68 62 13
68 63 84
68 64 49
68 65 93
68 66 70
68 67 37
69 0 43
69 1 27
69 2 64
69 3 32
69 4 19
69 5 70
69 6 94
69 7 2
69 8 27
69 9 63
69 10 83
69 11 87
69 12 71
69 13 75
69 14 12
69 15 53
69 16 67
69 17 3
69 18 98
69 19 71
69 20 40
69 21 61
69 22 4
69 23 15
69 24 83
69 25 74
69 26 6
69 27 93
69 28 82
69 29 45
69 30 48
69 31 21
69 32 2
69 33 76
69 34 64
69 35 2
69 36 62
69 37 70
69 38 53
69 39 71
69 40 67
69 41 27
69 42 26
69 43 19
69 44 57
69 45 14
69 46 68
69 47 3
69 48 97
69 49 91
69 50 83
69 51 8
69 52 25
69 53 92
69 54 14
69 55 20
69 56 24
69 57 21
69 58 54
69 59 23
69 60 85
69 61 1
69 62 98
69 63 27
69 64 81
69 65 76
69 66 86
69 67 95
69 68 67
